\ENCODING=ISO-8859-1
\Problem name: efftox_awT

Minimize
 obj: 27 x1 + 21.3 x2 + 46 x3 + 38.6 x4 + 40.2 x5 + 39.8 x6 + 55.9 x7 + 51 x8
      + 37.5 x9 + 54 x10 + 25.6 x11 + 23.9 x12 + 33.5 x13 + 18.7 x14 + 19.4 x15
      + 19.7 x16 + 21.2 x17 + 28.9 x18 + 29.4 x19 + 22.7 x20 + 40.5 x21 + x22
Subject To
 _efficacy_lambda#0: 0.0583864118895966 x1 + 0.0684713375796178 x2
                     + 0.0247699929228592 x3 + 0.037862703467799 x4
                     + 0.035031847133758 x5 + 0.0357395612172682 x6
                     + 0.00725406935598019 x7 + 0.0159235668789809 x8
                     + 0.0398089171974522 x9 + 0.0106157112526539 x10
                     + 0.0608634111818825 x11 + 0.0638711960368011 x12
                     + 0.0468860580325548 x13 + 0.0730714791224345 x14
                     + 0.0718329794762916 x15 + 0.0713021939136589 x16
                     + 0.0686482661004954 x17 + 0.0550247699929229 x18
                     + 0.054140127388535 x19 + 0.0659943382873319 x20
                     + 0.0345010615711253 x21 + x22 >= 1
 toxicity_lambda#1:  - 0.0476190476190476 x1 - 0.0476190476190476 x2
                     - 0.0476190476190476 x3 - 0.0476190476190476 x4
                     - 0.0476190476190476 x5 - 0.0476190476190476 x6
                     - 0.0476190476190476 x7 - 0.0476190476190476 x8
                     - 0.0476190476190476 x9 - 0.0476190476190476 x10
                     - 0.0476190476190476 x11 - 0.0476190476190476 x12
                     - 0.0476190476190476 x13 - 0.0476190476190476 x14
                     - 0.0476190476190476 x15 - 0.0476190476190476 x16
                     - 0.0476190476190476 x17 - 0.0476190476190476 x18
                     - 0.0476190476190476 x19 - 0.0476190476190476 x20
                     - 0.0476190476190476 x21 + x22 >= 0
 DLT#2:              x1 + x2 + x3 + x4 + x5 + x6 + x7 + x8 + x9 + x10 + x11
                     + x12 + x13 + x14 + x15 + x16 + x17 + x18 + x19 + x20
                     + x21 <= 100
 DLT#3:              x1 + x2 + x3 + x4 + x5 + x6 + x7 + x8 + x9 + x10 + x11
                     + x12 + x13 + x14 + x15 + x16 + x17 + x18 + x19 + x20
                     + x21 <= 100
 DLT#4:              x1 + x2 + x3 + x4 + x5 + x6 + x7 + x8 + x9 + x10 + x11
                     + x12 + x13 + x14 + x15 + x16 + x17 + x18 + x19 + x20
                     + x21 <= 100
 DLT#5:              x1 + x2 + x3 + x4 + x5 + x6 + x7 + x8 + x9 + x10 + x11
                     + x12 + x13 + x14 + x15 + x16 + x17 + x18 + x19 + x20
                     + x21 <= 100
 DLT#6:              x1 + x2 + x3 + x4 + x5 + x6 + x7 + x8 + x9 + x10 + x11
                     + x12 + x13 + x14 + x15 + x16 + x17 + x18 + x19 + x20
                     + x21 <= 100
 DLT#7:              x1 + x2 + x3 + x4 + x5 + x6 + x7 + x8 + x9 + x10 + x11
                     + x12 + x13 + x14 + x15 + x16 + x17 + x18 + x19 + x20
                     + x21 <= 100
Bounds
 0 <= x1 <= 1
 0 <= x2 <= 1
 0 <= x3 <= 1
 0 <= x4 <= 1
 0 <= x5 <= 1
 0 <= x6 <= 1
 0 <= x7 <= 1
 0 <= x8 <= 1
 0 <= x9 <= 1
 0 <= x10 <= 1
 0 <= x11 <= 1
 0 <= x12 <= 1
 0 <= x13 <= 1
 0 <= x14 <= 1
 0 <= x15 <= 1
 0 <= x16 <= 1
 0 <= x17 <= 1
 0 <= x18 <= 1
 0 <= x19 <= 1
 0 <= x20 <= 1
 0 <= x21 <= 1
      x22 Free
Binaries
 x1  x2  x3  x4  x5  x6  x7  x8  x9  x10  x11  x12  x13  x14  x15  x16  x17 
 x18  x19  x20  x21 
End
